10J3M/DAT/10J3MNNR-19.dat
10 3
24.8852 22.2189
31.1199 47.2242
20.9463 28.1862
33.684 40.0215
21.4997 15.0959
16.4973 18.81
20.1117 7.5042
30.9226 2.7561
33.3137 2.3342
20.6771 39.1282
223.2794