10J3M/SOL/10J3MNNR-19.sol
solution status: optimal solution found
objective value:                     85.2840666666667
x#1#1                                               1 	(obj:0)
x#2#2                                               1 	(obj:0)
x#3#2                                               1 	(obj:0)
x#4#1                                               1 	(obj:0)
x#5#1                              0.0938265587687674 	(obj:0)
x#5#3                               0.906173441231233 	(obj:0)
x#6#1                                               1 	(obj:0)
x#7#2                                               1 	(obj:0)
x#8#2                              0.0582515953150453 	(obj:0)
x#8#3                               0.941748404684955 	(obj:0)
x#9#1                                               1 	(obj:0)
x#10#3                                              1 	(obj:0)
z                                    85.2840666666667 	(obj:1)
